(set-info :smt-lib-version 2.6)
(set-logic QF_UFLRA)
(set-info :source |
MathSat group

|)
(set-info :category "random")
(set-info :status unsat)
(declare-fun x0 () Real)
(declare-fun x1 () Real)
(declare-fun x2 () Real)
(declare-fun x3 () Real)
(declare-fun x4 () Real)
(declare-fun x5 () Real)
(declare-fun x6 () Real)
(declare-fun x7 () Real)
(declare-fun x8 () Real)
(declare-fun x9 () Real)
(declare-fun x10 () Real)
(declare-fun x11 () Real)
(declare-fun x12 () Real)
(declare-fun x13 () Real)
(declare-fun x14 () Real)
(declare-fun x15 () Real)
(declare-fun x16 () Real)
(declare-fun x17 () Real)
(declare-fun x18 () Real)
(declare-fun x19 () Real)
(declare-fun x20 () Real)
(declare-fun x21 () Real)
(declare-fun x22 () Real)
(declare-fun x23 () Real)
(declare-fun x24 () Real)
(declare-fun x25 () Real)
(declare-fun x26 () Real)
(declare-fun x27 () Real)
(declare-fun x28 () Real)
(declare-fun x29 () Real)
(declare-fun f0_1 (Real) Real)
(declare-fun f0_2 (Real Real) Real)
(declare-fun f0_3 (Real Real Real) Real)
(declare-fun f0_4 (Real Real Real Real) Real)
(declare-fun P0 () Bool)
(declare-fun P1 () Bool)
(declare-fun P2 () Bool)
(declare-fun P3 () Bool)
(declare-fun P4 () Bool)
(declare-fun P5 () Bool)
(declare-fun P6 () Bool)
(declare-fun P7 () Bool)
(declare-fun P8 () Bool)
(declare-fun P9 () Bool)
(declare-fun P10 () Bool)
(declare-fun P11 () Bool)
(declare-fun P12 () Bool)
(declare-fun P13 () Bool)
(declare-fun P14 () Bool)
(declare-fun P15 () Bool)
(declare-fun P16 () Bool)
(declare-fun P17 () Bool)
(declare-fun P18 () Bool)
(declare-fun P19 () Bool)
(declare-fun P20 () Bool)
(declare-fun P21 () Bool)
(declare-fun P22 () Bool)
(declare-fun P23 () Bool)
(declare-fun P24 () Bool)
(declare-fun P25 () Bool)
(declare-fun P26 () Bool)
(declare-fun P27 () Bool)
(declare-fun P28 () Bool)
(declare-fun P29 () Bool)
(assert (let ((?v_5 (<= (+ (- (* 5 x27) (* 23 x24)) (* 25 x20)) 11)) (?v_76 (distinct (+ (- (* 17 x25) (* 8 x13)) (* 9 x2)) 5)) (?v_15 (< (- (+ (* 3 x17) (* 7 x8)) (* 42 x10)) 13)) (?v_67 (< (+ (- (* 28 x6) (* 41 x14)) (* 23 x18)) 28)) (?v_1 (distinct (f0_2 x15 x4) (f0_1 x20))) (?v_48 (distinct (f0_2 x8 x9) (f0_2 x7 x24))) (?v_0 (f0_1 x26))) (let ((?v_10 (= x26 ?v_0)) (?v_101 (distinct (f0_2 x0 x14) (f0_2 x0 x10))) (?v_154 (distinct x0 (f0_2 x15 x22))) (?v_74 (= x19 x7)) (?v_22 (f0_1 x21))) (let ((?v_105 (distinct ?v_22 (f0_2 x10 x8))) (?v_98 (distinct (f0_1 x25) ?v_0)) (?v_31 (= x28 x1)) (?v_36 (distinct x0 (f0_2 x24 x19))) (?v_41 (distinct x13 ?v_22)) (?v_85 (distinct (f0_2 x1 x12) x10)) (?v_18 (distinct x20 (f0_2 x20 x1))) (?v_12 (distinct (f0_2 x21 x27) x20)) (?v_24 (f0_1 x9))) (let ((?v_43 (= ?v_24 x6)) (?v_14 (= (f0_2 x14 x4) (f0_2 x27 x13))) (?v_3 (distinct (f0_2 x8 x24) (f0_2 x7 x21))) (?v_79 (distinct x11 (f0_2 x7 x25))) (?v_70 (= x5 (f0_1 x10))) (?v_17 (distinct x6 (f0_1 x2))) (?v_38 (distinct ?v_22 x13)) (?v_93 (= (f0_2 x13 x27) (f0_2 x2 x24))) (?v_89 (distinct (f0_1 x15) x15)) (?v_103 (f0_1 x17))) (let ((?v_132 (= ?v_103 (f0_2 x7 x8))) (?v_25 (f0_1 x0))) (let ((?v_35 (distinct ?v_24 ?v_25)) (?v_77 (distinct x4 (f0_1 x19))) (?v_46 (distinct ?v_25 x14)) (?v_75 (= ?v_103 x11)) (?v_42 (= (f0_1 x8) (f0_2 x24 x20))) (?v_6 (= (f0_2 x24 x22) x17)) (?v_21 (not P8)) (?v_91 (not P19)) (?v_149 (not P6)) (?v_4 (not ?v_98)) (?v_2 (not P0)) (?v_7 (not ?v_36)) (?v_51 (not ?v_41)) (?v_33 (not ?v_43)) (?v_112 (not ?v_5)) (?v_108 (or P9 P18)) (?v_116 (not P15)) (?v_84 (not P21)) (?v_49 (not ?v_3)) (?v_65 (not ?v_12)) (?v_62 (not ?v_93)) (?v_130 (not P11))) (let ((?v_19 (not ?v_75)) (?v_28 (not ?v_154)) (?v_78 (not ?v_14)) (?v_131 (not P14)) (?v_29 (not ?v_17)) (?v_58 (not P18)) (?v_54 (not P16)) (?v_32 (not ?v_31)) (?v_57 (not P1)) (?v_83 (not ?v_101)) (?v_115 (not ?v_70)) (?v_82 (not P23)) (?v_39 (not ?v_85)) (?v_97 (not ?v_35)) (?v_47 (not ?v_76)) (?v_40 (not ?v_38)) (?v_135 (not P24)) (?v_153 (not P7)) (?v_114 (not P22)) (?v_81 (not P25)) (?v_61 (not ?v_46)) (?v_64 (not P27)) (?v_145 (not P28)) (?v_63 (not P5)) (?v_68 (not P3)) (?v_80 (not ?v_48)) (?v_73 (not ?v_1)) (?v_88 (not P29)) (?v_110 (not ?v_18)) (?v_109 (not ?v_6)) (?v_90 (not ?v_77)) (?v_152 (not ?v_79)) (?v_143 (not P2)) (?v_94 (not ?v_89)) (?v_125 (not P9)) (?v_133 (not P20)) (?v_121 (not ?v_10)) (?v_124 (not ?v_67)) (?v_117 (not P17)) (?v_151 (not ?v_132)) (?v_137 (not ?v_105)) (?v_128 (not ?v_42)) (?v_134 (not P26)) (?v_148 (not P12)) (?v_136 (not P10)) (?v_144 (not ?v_15)) (?v_140 (not P4)) (?v_142 (not P13))) (let ((?v_157 (or ?v_78 ?v_75)) (?v_158 (not ?v_74)) (?v_159 (or ?v_57 ?v_28)) (?v_60 (<= (- (* 33 x23) (* 22 x7)) 29)) (?v_69 (< (+ (* 2 x14) (* 33 x15) (* 28 x22)) 29))) (let ((?v_27 (not ?v_69)) (?v_56 (<= (+ (* 34 x22) (* 10 x16) (* 14 x12)) 26))) (let ((?v_139 (not ?v_56)) (?v_126 (< (+ (* 37 x15) (* 13 x15) (* 7 x26)) 21))) (let ((?v_45 (not ?v_126)) (?v_99 (not ?v_60)) (?v_34 (<= (+ (* (- 5) x6) (* 7 x3) (* 18 x19)) 33))) (let ((?v_11 (not ?v_34)) (?v_123 (= (- (- (* (- 4) x29) x16) (* 24 x21)) (- 34)))) (let ((?v_55 (not ?v_123)) (?v_13 (<= (+ (- (* (- 14) x13) (* 41 x6)) (* 8 x29)) (- 17))) (?v_8 (<= (+ (- (* (- 11) x20) (* 16 x26)) (* 31 x19)) 5)) (?v_30 (< (+ (* 3 x12) (* 31 x17) (* 28 x4)) (- 16)))) (let ((?v_26 (not ?v_30)) (?v_104 (<= (+ (* (- 3) x26) (* 18 x7) (* 12 x28)) (- 29)))) (let ((?v_9 (not ?v_104)) (?v_52 (distinct (+ (- (* 29 x0) (* 8 x18)) (* 41 x17)) (- 21))) (?v_71 (<= (+ (* 7 x4) (* 39 x23) (* 28 x16)) (- 24))) (?v_20 (<= (- (- (* (- 5) x28) (* 14 x9)) (* 35 x22)) 4)) (?v_100 (< (+ (* 33 x29) (* 14 x28) (* 40 x2)) (- 14)))) (let ((?v_138 (not ?v_100)) (?v_113 (= (+ (- (* 10 x1) (* 19 x7)) (* 3 x28)) (- 23)))) (let ((?v_155 (not ?v_113)) (?v_119 (< (- (+ (* 20 x21) (* 7 x2)) (* 27 x3)) (- 9)))) (let ((?v_72 (not ?v_119)) (?v_16 (not ?v_13)) (?v_106 (< (+ (- (* 14 x3) (* 7 x15)) (* 26 x27)) (- 33)))) (let ((?v_86 (not ?v_106)) (?v_23 (<= (+ (* (- 5) x14) (* 37 x11) (* 15 x6)) 5)) (?v_122 (not ?v_20)) (?v_44 (< (- (+ (* (- 40) x18) (* 10 x20)) (* 26 x24)) 44))) (let ((?v_50 (not ?v_44)) (?v_129 (<= (- (+ (* (- 10) x26) (* 11 x10)) (* 22 x20)) 21))) (let ((?v_120 (not ?v_129)) (?v_37 (< (+ (* (- 17) x24) (* 10 x29) (* 36 x2)) (- 3))) (?v_95 (<= (- (- (* 30 x8) (* 22 x15)) (* 38 x4)) (- 9)))) (let ((?v_59 (not ?v_95)) (?v_53 (not ?v_52)) (?v_118 (<= (- (+ (* (- 33) x27) (* 37 x7)) (* 20 x2)) 13))) (let ((?v_111 (not ?v_118)) (?v_66 (<= (- (+ (* 12 x4) (* 40 x22)) (* 40 x14)) (- 40)))) (let ((?v_87 (not ?v_66)) (?v_150 (not ?v_23)) (?v_127 (< (- (+ (* (- 27) x26) (* 21 x27)) (* 4 x16)) (- 17)))) (let ((?v_96 (not ?v_127)) (?v_102 (not ?v_71))) (let ((?v_156 (or ?v_72 ?v_102)) (?v_92 (not ?v_8)) (?v_107 (or ?v_95 ?v_54)) (?v_141 (< (+ (* (- 30) x27) (* 30 x29) x14) (- 37))) (?v_146 (not ?v_37))) (let ((?v_147 (not ?v_141))) (and (and (and (and (and (and (and (and (and (and (and (and (and (and (and (and (and (and (and (and (and (and (and (and (and (and (and (and (and (and (and (and (and (and (and (and (and (and (and (and (and (and (and (and (and (and (and (and (and (and (and (and (and (and (and (and (and (and (and (and (and (and (and (and (and (and (and (and (and (and (and (and (and (and (and (and (and (and (and (and (and (and (and (and (and (and (and (and (and (and (and (and (and (and (and (and (and (and (and (and (and (and (and (and (and (and (and (and (and (and (and (and (and (and (and (and (and (and (and (and (and (and (and (and (and (and (and (and (and (and (and (and (and (and (and (and (and (and (and (and (and (and (and (and (and (and (and (and (and (and (and (and (and (and (and (and (and (and (and (and (and (and (and (and (and (and (and (and (and (and (and (and (and (and (and (and (and (and (and (and (and (and (and (and (and (and (and (and (and (and (and (and (and (and (and (and (and (and (and (and (and (and (and (and (and (and (and (and (and (and (and (and (and (and (and (and (and (and (and (and (and (and (and (and (and (and (and (and (and (and (and (and (and (and (and (and (and (and (and (and (and (and (and (and (and (and (and (and (and (and (and (and (and (and (and (and (and (and (and (and (and (and (and (and (and (and (and (and (and (and (and (and (and (and (and (and (and (and (and (and (and (and (and (and (and (and (and (and (and (and (and (and (and (and (and (and (and (and (and (and (and (and (and (and (and (and (and (and (and (and (and (and (and (and (and (and (and (and (and (and (and (and (and (and (and (and (and (and (and (and (and (and (and (and (and (and (and (and (and (and (and (and (and (and (and (and (and (and (and (and (and (and (and (and (and (and (and (and (and (and (and (and (and (and (and (and (and (and (and (and (and (and (and (and (and (and (and (and (and (and (and (and (and (and (and (and (and (and (and (and (and (and (and (and (and (and (and (and (and (and (and (and (and (and (and (and (and (and (and (and (and (and (and (and (and (and (and (and (and (and (and (and (and (and (and (and (and (and (and (and (and (and (and (and (and (and (and (and (and (and (and (and (and (and (and (and (and (and (and (or (or ?v_14 ?v_6) ?v_1) (or (or ?v_11 ?v_21) P12)) (or (or ?v_42 ?v_55) ?v_91)) (or (or P21 ?v_149) P11)) (or (or ?v_4 ?v_10) ?v_2)) (or (or P24 ?v_5) ?v_13)) (or (or ?v_7 ?v_8) ?v_3)) (or (or ?v_26 ?v_9) ?v_1)) (or (or ?v_2 ?v_3) ?v_18)) (or (or P3 P17) ?v_4)) (or (or ?v_51 ?v_52) ?v_5)) (or (or ?v_71 ?v_6) ?v_33)) (or (or ?v_7 ?v_112) ?v_20)) (or ?v_108 ?v_15)) (or (or ?v_116 ?v_17) P19)) (or (or ?v_84 ?v_138) P6)) (or (or ?v_8 ?v_49) ?v_65)) (or (or ?v_9 P16) P21)) (or (or ?v_62 P27) ?v_130)) (or (or P17 P18) ?v_155)) (or (or ?v_10 ?v_60) ?v_19)) (or (or ?v_11 ?v_12) ?v_28)) (or (or ?v_72 ?v_16) ?v_86)) (or (or ?v_78 P5) ?v_15)) (or (or ?v_16 P17) P28)) (or (or ?v_23 ?v_131) P9)) (or (or ?v_27 ?v_29) ?v_7)) (or (or ?v_48 ?v_4) ?v_18)) (or (or P13 ?v_58) ?v_5)) (or (or ?v_19 ?v_20) ?v_54)) (or (or ?v_3 ?v_21) ?v_122)) (or (or ?v_50 ?v_38) P4)) (or (or ?v_105 ?v_46) ?v_120)) (or (or P28 ?v_32) ?v_23)) (or (or ?v_7 ?v_35) ?v_57)) (or (or ?v_11 ?v_83) ?v_26)) (or (or P8 ?v_27) ?v_115)) (or (or P19 P21) ?v_3)) (or (or ?v_4 ?v_82) ?v_77)) (or (or ?v_28 ?v_29) ?v_30)) (or (or ?v_31 P20) ?v_39)) (or (or ?v_32 P15) ?v_37)) (or (or ?v_139 ?v_23) ?v_13)) (or (or P29 ?v_5) ?v_20)) (or (or ?v_20 ?v_33) P24)) (or (or ?v_45 ?v_34) ?v_97)) (or (or ?v_36 ?v_8) ?v_47)) (or (or ?v_67 ?v_37) ?v_36)) (or (or ?v_40 P28) ?v_39)) (or (or ?v_40 ?v_59) ?v_41)) (or (or ?v_42 ?v_39) P18)) (or (or ?v_43 P24) ?v_44)) (or (or ?v_135 ?v_74) ?v_153)) (or (or ?v_114 ?v_45) P20)) (or (or ?v_81 ?v_61) ?v_47)) (or (or P19 ?v_18) ?v_6)) (or (or P9 ?v_17) ?v_5)) (or (or ?v_79 ?v_48) P22)) (or (or ?v_49 ?v_50) ?v_64)) (or (or ?v_23 ?v_145) ?v_27)) (or (or ?v_51 ?v_53) ?v_63)) (or (or P7 ?v_53) ?v_12)) (or (or ?v_54 ?v_111) ?v_68)) (or (or ?v_41 ?v_55) ?v_38)) (or (or ?v_56 ?v_57) ?v_58)) (or (or ?v_59 P27) ?v_18)) (or (or P16 ?v_52) ?v_29)) (or (or P15 ?v_54) ?v_60)) (or (or ?v_61 ?v_62) ?v_66)) (or (or P7 ?v_63) ?v_64)) (or (or P2 P9) ?v_65)) (or (or ?v_32 ?v_87) ?v_150)) (or (or ?v_67 ?v_68) ?v_80)) (or (or P16 ?v_59) ?v_65)) (or (or ?v_18 ?v_69) ?v_65)) (or (or ?v_8 ?v_73) ?v_41)) (or (or ?v_96 ?v_57) ?v_50)) (or (or ?v_70 ?v_9) ?v_71)) (or ?v_156 ?v_88)) (or (or P28 ?v_73) ?v_69)) (or (or ?v_74 ?v_110) ?v_12)) (or (or ?v_32 ?v_54) ?v_75)) (or (or ?v_76 ?v_92) ?v_62)) (or (or ?v_61 ?v_9) ?v_54)) (or (or ?v_109 ?v_41) P21)) (or (or ?v_90 ?v_54) ?v_11)) (or (or ?v_78 P11) ?v_20)) (or (or ?v_21 ?v_89) ?v_79)) (or (or P6 ?v_80) ?v_37)) (or (or ?v_81 ?v_1) ?v_82)) (or (or ?v_63 P8) ?v_152)) (or (or ?v_83 ?v_84) ?v_65)) (or (or ?v_71 ?v_85) ?v_86)) (or (or ?v_69 ?v_68) ?v_87)) (or (or ?v_40 ?v_35) P14)) (or (or ?v_65 P1) ?v_143)) (or (or ?v_81 ?v_47) P9)) (or (or ?v_63 ?v_88) ?v_94)) (or (or ?v_89 P5) ?v_77)) (or (or ?v_67 ?v_3) ?v_90)) (or (or ?v_125 ?v_59) ?v_15)) (or (or ?v_91 ?v_51) ?v_92)) (or (or ?v_93 ?v_94) ?v_133)) (or (or ?v_49 ?v_55) ?v_121)) (or (or P4 P23) ?v_94)) (or ?v_107 ?v_96)) (or (or ?v_84 ?v_29) P2)) (or (or P15 ?v_99) P0)) (or (or ?v_97 ?v_98) P3)) (or (or ?v_72 ?v_78) ?v_74)) (or (or P15 ?v_44) ?v_63)) (or (or ?v_124 ?v_48) ?v_69)) (or (or ?v_11 ?v_54) ?v_46)) (or (or ?v_99 ?v_48) ?v_79)) (or (or P9 ?v_117) ?v_20)) (or (or ?v_100 P9) ?v_101)) (or (or ?v_102 ?v_15) ?v_91)) (or (or P4 ?v_151) ?v_47)) (or (or ?v_64 P28) ?v_41)) (or (or ?v_104 P10) ?v_98)) (or (or ?v_50 ?v_4) ?v_137)) (or (or ?v_61 ?v_45) ?v_19)) (or (or ?v_46 ?v_12) ?v_106)) (or ?v_107 ?v_128)) (or ?v_108 ?v_109)) (or (or ?v_61 ?v_110) ?v_95)) (or (or ?v_38 ?v_100) ?v_98)) (or (or ?v_31 ?v_111) ?v_112)) (or (or ?v_98 ?v_8) P27)) (or (or ?v_113 ?v_114) P14)) (or (or P13 ?v_115) ?v_79)) (or (or ?v_50 ?v_102) ?v_14)) (or (or ?v_55 P3) ?v_141)) (or (or ?v_105 ?v_105) ?v_116)) (or (or ?v_117 ?v_134) ?v_118)) (or (or ?v_146 ?v_62) ?v_113)) (or (or ?v_101 ?v_114) ?v_119)) (or (or ?v_30 ?v_84) ?v_120)) (or (or ?v_121 ?v_77) ?v_122)) (or (or ?v_75 ?v_56) ?v_34)) (or (or ?v_123 ?v_71) ?v_124)) (or (or ?v_55 ?v_61) P15)) (or (or ?v_80 ?v_84) P8)) (or (or ?v_83 ?v_82) ?v_47)) (or (or ?v_95 ?v_125) ?v_80)) (or (or ?v_79 ?v_23) ?v_76)) (or (or P6 ?v_92) ?v_87)) (or (or P10 ?v_126) ?v_106)) (or (or ?v_26 ?v_13) ?v_127)) (or (or ?v_128 ?v_129) ?v_27)) (or (or ?v_46 P5) ?v_125)) (or (or ?v_105 ?v_4) ?v_78)) (or (or ?v_66 ?v_109) ?v_18)) (or (or ?v_19 ?v_130) ?v_15)) (or (or ?v_85 ?v_77) ?v_123)) (or (or ?v_8 P29) ?v_119)) (or (or P25 ?v_84) ?v_148)) (or (or ?v_40 ?v_124) ?v_116)) (or (or P4 ?v_131) ?v_4)) (or (or ?v_119 ?v_128) ?v_100)) (or (or ?v_80 ?v_136) ?v_132)) (or (or ?v_44 ?v_42) ?v_1)) (or (or ?v_90 ?v_68) ?v_39)) (or (or ?v_79 ?v_88) ?v_5)) (or (or ?v_124 ?v_43) ?v_79)) (or (or ?v_118 ?v_39) ?v_64)) (or (or ?v_32 ?v_133) ?v_111)) (or (or ?v_20 P22) P3)) (or (or ?v_144 ?v_51) P8)) (or (or ?v_70 ?v_53) ?v_134)) (or (or ?v_73 ?v_96) ?v_101)) (or (or ?v_52 P24) ?v_21)) (or (or ?v_135 P18) ?v_82)) (or (or ?v_57 ?v_136) ?v_106)) (or (or ?v_97 ?v_137) ?v_70)) (or (or ?v_135 P3) ?v_67)) (or (or ?v_98 P12) ?v_90)) (or (or ?v_94 ?v_129) ?v_50)) (or (or ?v_138 ?v_114) P13)) (or (or ?v_50 ?v_134) ?v_78)) (or (or ?v_3 ?v_72) ?v_39)) (or (or ?v_47 ?v_76) ?v_64)) (or (or ?v_115 ?v_81) ?v_16)) (or (or ?v_140 ?v_58) ?v_41)) (or (or ?v_33 P7) ?v_57)) (or (or ?v_96 ?v_11) ?v_9)) (or (or ?v_134 P18) ?v_73)) (or (or ?v_71 ?v_106) ?v_89)) (or (or ?v_91 ?v_129) ?v_98)) (or (or ?v_139 ?v_131) ?v_101)) (or (or ?v_98 ?v_114) P23)) (or (or ?v_140 ?v_78) ?v_113)) (or (or ?v_7 ?v_43) ?v_2)) (or (or ?v_142 ?v_112) P29)) (or (or ?v_86 ?v_97) ?v_76)) (or (or ?v_147 P8) ?v_49)) (or (or ?v_71 ?v_18) ?v_112)) (or (or ?v_18 ?v_142) ?v_26)) (or (or ?v_37 ?v_87) ?v_127)) (or (or ?v_34 ?v_26) ?v_114)) (or (or ?v_40 ?v_3) ?v_130)) (or (or ?v_84 ?v_139) P22)) (or (or P23 ?v_34) ?v_49)) (or (or ?v_83 ?v_54) ?v_81)) (or (or ?v_17 ?v_125) P6)) (or (or ?v_142 ?v_143) ?v_120)) (or (or ?v_59 ?v_81) P6)) (or (or ?v_46 ?v_20) ?v_119)) (or (or ?v_126 ?v_136) ?v_9)) (or (or ?v_144 P10) P16)) (or (or P6 ?v_140) ?v_78)) (or (or ?v_99 ?v_139) ?v_114)) (or ?v_157 ?v_134)) (or (or P6 P7) ?v_66)) (or (or ?v_133 ?v_23) ?v_145)) (or (or ?v_63 P24) ?v_133)) (or (or ?v_102 ?v_146) ?v_93)) (or (or ?v_91 ?v_83) ?v_21)) (or (or ?v_93 ?v_44) ?v_79)) (or (or ?v_5 ?v_134) ?v_29)) (or (or ?v_121 P24) ?v_32)) (or (or ?v_83 ?v_83) ?v_90)) (or (or ?v_48 ?v_61) ?v_35)) (or (or ?v_73 ?v_65) ?v_40)) (or (or ?v_42 ?v_86) ?v_141)) (or (or ?v_77 ?v_1) ?v_143)) (or (or ?v_146 ?v_47) ?v_3)) (or (or ?v_105 ?v_43) P28)) (or (or ?v_112 ?v_7) ?v_47)) (or (or ?v_31 ?v_119) ?v_87)) (or (or ?v_65 ?v_84) ?v_10)) (or (or ?v_104 ?v_79) ?v_60)) (or (or ?v_132 ?v_129) ?v_112)) (or (or ?v_111 P6) ?v_133)) (or (or ?v_8 P7) ?v_13)) (or (or ?v_126 ?v_44) ?v_147)) (or (or ?v_81 ?v_118) ?v_94)) (or (or ?v_112 ?v_123) P2)) (or (or ?v_32 ?v_45) ?v_65)) (or (or ?v_120 ?v_76) ?v_98)) (or (or ?v_127 ?v_82) ?v_147)) (or (or ?v_11 P2) P25)) (or (or P23 ?v_106) P24)) (or (or ?v_20 P5) P12)) (or (or ?v_82 ?v_11) P12)) (or (or ?v_109 ?v_97) ?v_34)) (or (or ?v_134 ?v_126) ?v_148)) (or (or ?v_12 ?v_127) ?v_113)) (or (or ?v_126 ?v_127) ?v_128)) (or (or ?v_45 ?v_88) ?v_61)) (or (or ?v_120 P20) ?v_118)) (or (or ?v_134 ?v_6) ?v_129)) (or (or ?v_1 ?v_31) ?v_111)) (or (or P7 ?v_140) ?v_113)) (or (or ?v_144 ?v_149) ?v_132)) (or (or P26 ?v_125) ?v_136)) (or (or ?v_50 ?v_63) ?v_135)) (or (or ?v_69 ?v_158) ?v_92)) (or (or ?v_42 P28) ?v_1)) (or (or ?v_46 ?v_65) P29)) (or (or ?v_100 ?v_16) ?v_127)) (or (or ?v_75 ?v_18) ?v_20)) (or (or P18 ?v_51) ?v_145)) (or (or ?v_144 ?v_42) ?v_117)) (or (or ?v_56 ?v_51) ?v_18)) (or (or ?v_100 P3) ?v_98)) (or (or ?v_119 P8) P9)) (or (or ?v_31 ?v_61) ?v_74)) (or (or ?v_112 P21) ?v_79)) (or (or P18 P23) ?v_95)) (or (or P9 ?v_123) ?v_18)) (or (or P6 ?v_112) ?v_121)) (or (or ?v_15 ?v_34) ?v_150)) (or (or ?v_105 ?v_86) ?v_13)) (or (or ?v_9 ?v_127) ?v_39)) (or (or ?v_99 ?v_141) ?v_114)) (or (or ?v_145 ?v_88) ?v_62)) (or (or ?v_125 ?v_147) ?v_66)) (or (or P26 ?v_39) ?v_16)) (or (or P27 ?v_40) ?v_9)) (or (or ?v_14 ?v_135) ?v_3)) (or (or ?v_131 P12) P20)) (or (or P3 ?v_12) P28)) (or (or ?v_15 ?v_128) ?v_13)) (or (or ?v_89 ?v_63) ?v_3)) (or (or ?v_147 ?v_151) ?v_115)) (or (or ?v_50 ?v_3) P4)) (or (or ?v_5 ?v_56) ?v_18)) (or ?v_159 ?v_135)) (or (or ?v_145 ?v_151) P5)) (or (or P12 ?v_144) P15)) (or (or ?v_78 P3) ?v_10)) (or (or ?v_113 P11) ?v_124)) (or (or ?v_33 ?v_141) ?v_70)) (or (or ?v_110 ?v_35) ?v_51)) (or (or ?v_50 ?v_92) ?v_10)) (or (or ?v_91 ?v_12) ?v_78)) (or (or ?v_109 ?v_117) ?v_46)) (or (or ?v_10 P5) ?v_16)) (or (or ?v_19 ?v_134) ?v_92)) (or (or ?v_26 ?v_139) ?v_66)) (or (or ?v_80 ?v_13) ?v_148)) (or (or ?v_12 ?v_79) ?v_23)) (or (or P10 ?v_109) ?v_92)) (or (or P23 ?v_121) ?v_48)) (or (or ?v_37 ?v_53) ?v_21)) (or (or ?v_20 ?v_13) ?v_32)) (or (or ?v_129 ?v_130) ?v_43)) (or (or ?v_76 ?v_78) ?v_88)) (or (or P0 ?v_152) P13)) (or (or ?v_70 ?v_18) ?v_138)) (or (or ?v_94 ?v_29) ?v_33)) (or (or P29 ?v_132) ?v_106)) (or (or ?v_68 ?v_153) P8)) (or (or ?v_18 ?v_95) ?v_99)) (or (or P15 ?v_127) ?v_86)) (or (or ?v_1 ?v_14) ?v_47)) (or (or ?v_112 ?v_53) ?v_84)) (or (or ?v_15 ?v_125) ?v_14)) (or (or P18 ?v_41) ?v_105)) (or (or ?v_68 ?v_43) ?v_28)) (or (or P17 ?v_35) ?v_52)) (or (or ?v_95 ?v_95) ?v_113)) (or (or P8 ?v_28) ?v_35)) (or (or ?v_1 P7) ?v_34)) (or (or ?v_57 ?v_148) ?v_54)) (or (or ?v_120 ?v_100) ?v_116)) (or (or ?v_9 ?v_82) ?v_114)) (or (or ?v_18 ?v_97) ?v_5)) (or (or ?v_145 P28) P24)) (or (or ?v_36 P3) ?v_122)) (or (or P19 ?v_53) ?v_119)) (or (or ?v_105 ?v_148) ?v_127)) (or (or ?v_151 P13) ?v_154)) (or (or ?v_3 ?v_50) ?v_116)) (or (or ?v_96 ?v_118) ?v_92)) (or (or ?v_59 ?v_42) ?v_129)) (or (or ?v_51 ?v_81) ?v_149)) (or (or ?v_69 ?v_27) ?v_26)) (or (or ?v_16 ?v_96) P21)) (or (or ?v_92 ?v_4) ?v_133)) (or (or ?v_148 P27) ?v_37)) (or (or ?v_102 ?v_137) ?v_32)) (or (or ?v_33 ?v_99) ?v_1)) (or (or ?v_38 P1) ?v_129)) (or (or ?v_11 ?v_72) ?v_35)) (or (or ?v_7 ?v_46) ?v_80)) (or (or ?v_91 ?v_93) ?v_155)) (or (or ?v_129 ?v_48) ?v_110)) (or (or ?v_41 ?v_54) ?v_113)) (or (or ?v_77 ?v_38) ?v_65)) (or (or ?v_34 ?v_122) ?v_129)) (or (or P27 ?v_16) P18)) (or (or ?v_137 ?v_17) P18)) (or (or ?v_131 ?v_23) ?v_2)) (or (or P1 P6) ?v_11)) (or (or ?v_136 P2) ?v_49)) (or (or ?v_29 ?v_70) ?v_101)) (or (or ?v_1 ?v_12) ?v_77)) (or (or ?v_38 P9) ?v_64)) (or (or ?v_127 ?v_104) ?v_62)) (or (or ?v_116 ?v_93) ?v_75)) (or (or ?v_56 ?v_5) ?v_129)) (or (or ?v_135 ?v_93) ?v_120)) (or (or ?v_58 ?v_150) ?v_57)) (or (or ?v_76 ?v_70) ?v_84)) (or (or ?v_16 ?v_128) P8)) (or (or P5 ?v_50) ?v_130)) (or (or ?v_5 ?v_55) ?v_63)) (or (or ?v_142 ?v_84) ?v_47)) (or (or ?v_75 ?v_84) P15)) (or (or ?v_67 ?v_14) ?v_81)) (or (or ?v_52 ?v_41) ?v_129)) (or (or P23 ?v_114) ?v_2)) (or (or ?v_40 ?v_89) ?v_90)) (or ?v_156 P28)) (or (or ?v_114 ?v_124) P17)) (or (or ?v_122 ?v_36) ?v_81)) (or (or P4 ?v_126) ?v_49)) (or (or ?v_30 ?v_142) ?v_110)) (or (or ?v_3 ?v_43) ?v_2)) (or (or ?v_79 ?v_70) P14)) (or (or ?v_13 P22) ?v_146)) (or (or ?v_106 ?v_11) ?v_20)) (or (or ?v_36 ?v_12) ?v_111)) (or (or ?v_14 ?v_49) P22)) (or (or ?v_16 P16) ?v_115)) (or (or ?v_113 ?v_36) ?v_85)) (or ?v_157 ?v_86)) (or (or ?v_49 ?v_136) ?v_56)) (or (or P26 ?v_94) ?v_138)) (or (or ?v_101 ?v_122) ?v_105)) (or (or ?v_47 ?v_87) ?v_6)) (or (or P22 ?v_90) ?v_109)) (or (or ?v_12 ?v_146) ?v_110)) (or (or ?v_86 ?v_51) P23)) (or (or ?v_9 ?v_55) P11)) (or (or ?v_127 ?v_8) P18)) (or (or ?v_9 ?v_158) ?v_136)) (or (or P11 ?v_31) P7)) (or (or ?v_2 ?v_112) ?v_92)) (or (or P19 ?v_143) ?v_36)) (or (or ?v_14 ?v_40) P1)) (or (or ?v_23 P7) ?v_47)) (or (or ?v_136 ?v_148) ?v_88)) (or (or ?v_29 ?v_23) ?v_158)) (or (or ?v_14 P22) ?v_97)) (or (or ?v_153 ?v_85) ?v_83)) (or (or ?v_89 ?v_92) P6)) (or (or ?v_94 ?v_122) ?v_12)) (or (or ?v_122 ?v_118) P26)) (or (or ?v_78 ?v_20) ?v_37)) (or (or ?v_17 P20) ?v_43)) (or (or ?v_148 ?v_116) ?v_35)) (or ?v_159 ?v_72)) (or (or ?v_105 ?v_95) P1)) (or (or P21 ?v_110) ?v_80)) (or (or ?v_135 ?v_41) ?v_75)) (or (or ?v_36 ?v_113) ?v_144)) (or (or ?v_147 P13) ?v_112)) (or (or ?v_36 P9) ?v_33)) (or (or ?v_138 ?v_109) ?v_96)) (or (or P9 ?v_75) ?v_129)) (or (or ?v_51 ?v_122) ?v_118)) (or (or ?v_13 ?v_27) ?v_127)) (or (or P17 ?v_106) ?v_97)) (or (or ?v_124 ?v_75) ?v_119)) (or (or ?v_113 P5) ?v_139)) (or (or ?v_136 ?v_18) ?v_33)) (or (or P18 ?v_45) ?v_73)) (or (or ?v_89 ?v_7) ?v_82)) (or (or ?v_135 ?v_37) ?v_121)) (or (or P19 ?v_32) ?v_88)) (or (or P23 ?v_88) ?v_2)) (or (or ?v_142 ?v_86) ?v_134)) (or (or ?v_56 ?v_151) ?v_154)) (or (or ?v_81 ?v_135) ?v_14)) (or (or P5 ?v_73) ?v_102)) (or (or ?v_40 ?v_90) ?v_73)) (or (or ?v_122 ?v_79) ?v_140)) (or (or ?v_117 ?v_40) ?v_148)) (or (or ?v_115 ?v_121) P20)) (or (or ?v_86 ?v_60) P26)) (or (or ?v_64 ?v_45) ?v_67)) (or (or ?v_147 ?v_41) ?v_105)) (or (or ?v_146 ?v_43) ?v_58)) (or (or ?v_46 ?v_130) P10)) (or (or ?v_146 ?v_132) ?v_154)) (or (or ?v_39 ?v_28) ?v_81)) (or (or ?v_13 ?v_124) ?v_61))))))))))))))))))))))))))))))
(check-sat)
(exit)
